NAME: I9641-n31-k3
COMMENT : (Fake et al, No of trucks: 3, Optimal value: )
TYPE : CVRP
DIMENSION : 31
EDGE_WEIGHT_TYPE : EUC_2D
CAPACITY : 18
NODE_COORD_SECTION
1 748 927
2 346 431
3 240 11
4 402 951
5 587 600
6 616 186
7 700 895
8 484 460
9 566 827
10 178 289
11 827 753
12 681 374
13 400 963
14 337 128
15 884 171
16 288 245
17 629 102
18 319 13
19 671 633
20 537 207
21 742 937
22 565 818
23 883 796
24 29 797
25 373 226
26 974 619
27 878 986
28 968 229
29 841 974
30 691 745
31 116 782
DEMAND_SECTION
1 0
2 1
3 2
4 2
5 2
6 2
7 2
8 1
9 2
10 1
11 2
12 1
13 1
14 2
15 2
16 2
17 1
18 2
19 1
20 2
21 2
22 1
23 1
24 2
25 2
26 2
27 1
28 1
29 2
30 1
31 2
DEPOT_SECTION
 1
 -1
 EOF 